5 5
3 48 2 22 0 94 4 54 1 4
0 87 1 55 4 44 2 89 3 12
1 81 3 79 4 74 2 99 0 52
3 93 0 76 4 65 1 65 2 10
0 18 2 47 1 66 4 49 3 72
-1
0 1 2 4 5
0 4 5
0 2 3 5
0 1 2 4 5
0 3 5
-2
57 85 334 275
352 331
201 367 432
143 196 389 486
179 354

449 8
5 20 16 2 14
10 6 22 18 4
21 8 1 13 19
15 11 0 9 24
7 12 23 17 3
